Cu  O 
 1.0000000000000000
     5.1212392475198811    0.0000000000000000    0.0000000000000000
     2.5606196237599406    4.4351232872101205    0.0000000000000000
     0.0000000000000000    0.0000000000000000   30.2722115035692951
  Cu   O
  16   1
Selective dynamics
Cartesian
  0.0000000000000000  0.0000000000000000 12.0000000000000018   F   F   F
  3.8409294356399108  2.2175616436050607 12.0000000000000018   F   F   F
  2.5606196237599406  0.0000000000000002 12.0000000000000018   F   F   F
  1.2803098118799703  2.2175616436050603 12.0000000000000018   F   F   F
  5.1212392475198811  2.9567488581400805 14.0907371678564317   T   T   T
  1.2803098118799698  0.7391872145350207 14.0907371678564317   T   T   T
  2.5606196237599401  2.9567488581400805 14.0907371678564317   T   T   T
  3.8409294356399108  0.7391872145350206 14.0907371678564317   T   T   T
  2.5606196237599406  1.4783744290700409 16.1814743357128634   T   T   T
  6.4015490593998514  3.6959360726751020 16.1814743357128634   T   T   T
  5.1212392475198802  1.4783744290700414 16.1814743357128634   T   T   T
  3.8409294356399108  3.6959360726751012 16.1814743357128634   T   T   T
  0.0000000000000006  0.0000000000000010 18.2722115035692951   T   T   T
  3.8409294356399100  2.2175616436050620 18.2722115035692951   T   T   T
  2.5606196237599397  0.0000000000000020 18.2722115035692951   T   T   T
  1.2803098118799709  2.2175616436050611 18.2722115035692951   T   T   T
  1.2803098118799703  0.7391872145350200 19.7722115035692951   T   T   T
