comment                                 
   1.00000000000000     
    14.8434965147212488    0.0000000000000000    0.1457964694227300
     0.0000000000000000    4.4432968407124491    0.0000000000000000
    -2.5483468559654576    0.0000000000000000   15.4841236248473919
   Ag   Cu   Te   Li
     8     8    16    16
Direct
  0.4964102426951020  0.5000000000000000  0.4956627637116394
  0.5063248314540824  0.0000000000000000  0.7579839062787143
  0.2450053804217212  0.5000000000000000  0.6254465375297376
  0.0087405464861450  0.5000000000000000  0.7524217776708515
  0.5059181390061485  0.0000000000000000  0.2496553102580218
  0.2457415294333289  0.5000000000000000  0.1251139006130534
 -0.0038793629395017  0.5000000000000000  0.2465941843718422
  0.7511994437863756  0.0000000000000000  0.6270778266974589
  0.5015205258799000  0.5000000000000000  0.0001500879428740
  0.2438815810502522  0.0000000000000000  0.3741561444075110
 -0.0042832401924638  0.0000000000000000  0.4947212036119910
  0.7549071648829441  0.5000000000000000  0.3708712007876744
  0.2556755585932190  0.0000000000000000  0.8828261694449907
 -0.0050485601679962  0.0000000000000000 -0.0044367034980608
  0.7537134127499769  0.5000000000000000  0.8832954164780303
  0.7452940819417693  0.0000000000000000  0.1214402081545327
  0.6984009815480985  0.0000000000000000  0.7940258052013464
  0.6849463568436890  0.5000000000000000  0.0321984815668242
  0.4378384592982121  0.0000000000000000  0.9164577361018502
  0.1769914505955225  0.0000000000000000  0.0242037212083429
  0.6985841502197403  0.0000000000000000  0.2806569082865418
  0.6884858183180332  0.5000000000000000  0.5207127211501893
  0.4241105508209868  0.0000000000000000  0.4004719966743559
  0.4386261299097000  0.5000000000000000  0.6580039955649182
  0.1776809115737270  0.0000000000000000  0.5221601176280883
  0.2004624209366178  0.5000000000000000  0.7948531770889746
  0.9439203687514446  0.0000000000000000  0.6493568937834457
  0.9348490178277320  0.5000000000000000  0.9104098408457721
  0.4392043463438011  0.5000000000000000  0.1484953274068597
  0.1882435015991819  0.5000000000000000  0.2875819181807008
  0.9280797415862821  0.0000000000000000  0.1441217291594313
  0.9344157771662708  0.5000000000000000  0.4092248837487915
  0.5589467095413381  0.0000000000000000  0.5926437932882493
  0.5704133126494942  0.5000000000000000  0.8534392036645383
  0.3162396717803272  0.0000000000000000  0.7280061346326889
  0.0713396387772112  0.0000000000000000  0.8501653999740207
  0.5602763406544254  0.0000000000000000  0.0881435306001625
  0.5719123457039004  0.5000000000000000  0.3444749861929779
  0.3143403316006165  0.0000000000000000  0.2237499774052701
  0.3044119455304070  0.5000000000000000  0.4632800948557116
  0.0618800878467156  0.0000000000000000  0.3459220509694704
  0.0539933928529172  0.5000000000000000  0.5822931234668492
  0.8111284006163153  0.0000000000000000  0.4649478600012741
  0.8192136370511213  0.5000000000000000  0.7300345678343984
  0.3162676414088048  0.5000000000000000  0.9713177454909453
  0.0544626701424024  0.5000000000000000  0.0839810363237868
  0.8122310914794667  0.0000000000000000  0.9712720134446859
  0.8069815239444957  0.5000000000000000  0.2104132937976743
 
  0.00000000E+00  0.00000000E+00  0.00000000E+00
  0.00000000E+00  0.00000000E+00  0.00000000E+00
  0.00000000E+00  0.00000000E+00  0.00000000E+00
  0.00000000E+00  0.00000000E+00  0.00000000E+00
  0.00000000E+00  0.00000000E+00  0.00000000E+00
  0.00000000E+00  0.00000000E+00  0.00000000E+00
  0.00000000E+00  0.00000000E+00  0.00000000E+00
  0.00000000E+00  0.00000000E+00  0.00000000E+00
  0.00000000E+00  0.00000000E+00  0.00000000E+00
  0.00000000E+00  0.00000000E+00  0.00000000E+00
  0.00000000E+00  0.00000000E+00  0.00000000E+00
  0.00000000E+00  0.00000000E+00  0.00000000E+00
  0.00000000E+00  0.00000000E+00  0.00000000E+00
  0.00000000E+00  0.00000000E+00  0.00000000E+00
  0.00000000E+00  0.00000000E+00  0.00000000E+00
  0.00000000E+00  0.00000000E+00  0.00000000E+00
  0.00000000E+00  0.00000000E+00  0.00000000E+00
  0.00000000E+00  0.00000000E+00  0.00000000E+00
  0.00000000E+00  0.00000000E+00  0.00000000E+00
  0.00000000E+00  0.00000000E+00  0.00000000E+00
  0.00000000E+00  0.00000000E+00  0.00000000E+00
  0.00000000E+00  0.00000000E+00  0.00000000E+00
  0.00000000E+00  0.00000000E+00  0.00000000E+00
  0.00000000E+00  0.00000000E+00  0.00000000E+00
  0.00000000E+00  0.00000000E+00  0.00000000E+00
  0.00000000E+00  0.00000000E+00  0.00000000E+00
  0.00000000E+00  0.00000000E+00  0.00000000E+00
  0.00000000E+00  0.00000000E+00  0.00000000E+00
  0.00000000E+00  0.00000000E+00  0.00000000E+00
  0.00000000E+00  0.00000000E+00  0.00000000E+00
  0.00000000E+00  0.00000000E+00  0.00000000E+00
  0.00000000E+00  0.00000000E+00  0.00000000E+00
  0.00000000E+00  0.00000000E+00  0.00000000E+00
  0.00000000E+00  0.00000000E+00  0.00000000E+00
  0.00000000E+00  0.00000000E+00  0.00000000E+00
  0.00000000E+00  0.00000000E+00  0.00000000E+00
  0.00000000E+00  0.00000000E+00  0.00000000E+00
  0.00000000E+00  0.00000000E+00  0.00000000E+00
  0.00000000E+00  0.00000000E+00  0.00000000E+00
  0.00000000E+00  0.00000000E+00  0.00000000E+00
  0.00000000E+00  0.00000000E+00  0.00000000E+00
  0.00000000E+00  0.00000000E+00  0.00000000E+00
  0.00000000E+00  0.00000000E+00  0.00000000E+00
  0.00000000E+00  0.00000000E+00  0.00000000E+00
  0.00000000E+00  0.00000000E+00  0.00000000E+00
  0.00000000E+00  0.00000000E+00  0.00000000E+00
  0.00000000E+00  0.00000000E+00  0.00000000E+00
  0.00000000E+00  0.00000000E+00  0.00000000E+00
