comment                                 
   1.00000000000000     
     9.2346058332736476    0.0015946447330802   -0.0006553843781976
    -5.5394861572153973    7.3881736598007066    0.0006336125909307
    -0.0008299436950383    0.0003818047991962   11.6816734664693787
   Co   Ta   Sn   Ge
    16    16     8     8
Direct
  0.2535028069540247  0.7579397169601150  0.9995974214218137
  0.0038469404630428  0.9966015701635643  0.9958308823010572
  0.5006429623601021  0.4994495920854542  0.0003710763203244
  0.3729707914933071  0.1157623193190474  0.2516793737080916
  0.8827659519369814  0.6322875726031962  0.2559066201559142
  0.2496710489075445  0.7507734445452057  0.4997991137281513
  0.7424647284665499  0.2421688677375400  0.0043492028230896
  0.1240360727202256  0.3760235047348461  0.2581986425685684
  0.6219102052117690  0.8782584952093270  0.2546324574292035
  0.0045636185134720  0.0047090733762868  0.4973002765150449
  0.4903771142156373  0.4968580404594550  0.5001111285649437
  0.3702979612518414  0.1194428597690850  0.7446464612345526
  0.8854784073987300  0.6274620808005337  0.7477780621365555
  0.7518419231359889  0.2476662784608527  0.5028634860676875
  0.1245588979827337  0.3753479618287322  0.7421990579574539
  0.6213367224691708  0.8790138640916134  0.7449886883263224
  0.0061787934861080  0.5034150425904845  0.3809780913567588
  0.7528415420138379  0.7578897264378734  0.3765834159329480
  0.2442590621635207  0.2472697821914099  0.3798222629202241
  0.1313658234664081  0.8772843655728697  0.6219391278016875
  0.6217259783793759  0.3672095601161974  0.6232845395292204
  0.0056635210484981  0.5069913465720335  0.8695673600299225
  0.4962036556389818  0.9942945460632047  0.3778133608872012
  0.8776851777277036  0.1298212508292634  0.6199022064614946
  0.3678917298719309  0.6238970904493872  0.6196099256406538
  0.7577719512229795  0.7533042893266729  0.8729652568818497
  0.2470208555968042  0.2423880892318908  0.8684552023129858
  0.1322225032544594  0.8777946316887524  0.1268659856963915
  0.6211399943748207  0.3667095927627541  0.1270407625336758
  0.4928191528471452  0.9971177637222735  0.8727622365728539
  0.8683401013924058  0.1220495896153359  0.1313320543270085
  0.3767215778525533  0.6327424332826526  0.1308178835837906
  0.2478823081751152  0.2513121177990904  0.1259519907040248
  0.7514764678310413  0.7487211878622456  0.1258047099491567
  0.6251257158367430  0.3759706602223321  0.3755436187725801
  0.9995146838846690  0.5000046676085237  0.1252089289655460
  0.7491502162987950  0.7487078921515163  0.6246448044560895
  0.6263843518172210  0.3751280945801526  0.8740772310381643
  0.3772821031341028  0.6236786066605902  0.8742451076729609
  0.8737603067101684  0.1264640064474689  0.8748309266944073
  0.4993835869517204  0.9994956599327210  0.1257835720399844
  0.1252245320002782  0.8757854767590645  0.3755064081378171
  0.5011901108184612  0.9987803556881130  0.6242187056860286
  0.3756313517958337  0.6243078692216666  0.3759024775150529
  0.8738019743259963  0.1271363609497811  0.3762792364313728
  0.2498184048904198  0.2499283358940336  0.6238871439248963
  0.1257961129583084  0.8745402142851849  0.8740677725117652
  0.9984601987525007  0.5000941513395127  0.6240557417727196
 
  0.00000000E+00  0.00000000E+00  0.00000000E+00
  0.00000000E+00  0.00000000E+00  0.00000000E+00
  0.00000000E+00  0.00000000E+00  0.00000000E+00
  0.00000000E+00  0.00000000E+00  0.00000000E+00
  0.00000000E+00  0.00000000E+00  0.00000000E+00
  0.00000000E+00  0.00000000E+00  0.00000000E+00
  0.00000000E+00  0.00000000E+00  0.00000000E+00
  0.00000000E+00  0.00000000E+00  0.00000000E+00
  0.00000000E+00  0.00000000E+00  0.00000000E+00
  0.00000000E+00  0.00000000E+00  0.00000000E+00
  0.00000000E+00  0.00000000E+00  0.00000000E+00
  0.00000000E+00  0.00000000E+00  0.00000000E+00
  0.00000000E+00  0.00000000E+00  0.00000000E+00
  0.00000000E+00  0.00000000E+00  0.00000000E+00
  0.00000000E+00  0.00000000E+00  0.00000000E+00
  0.00000000E+00  0.00000000E+00  0.00000000E+00
  0.00000000E+00  0.00000000E+00  0.00000000E+00
  0.00000000E+00  0.00000000E+00  0.00000000E+00
  0.00000000E+00  0.00000000E+00  0.00000000E+00
  0.00000000E+00  0.00000000E+00  0.00000000E+00
  0.00000000E+00  0.00000000E+00  0.00000000E+00
  0.00000000E+00  0.00000000E+00  0.00000000E+00
  0.00000000E+00  0.00000000E+00  0.00000000E+00
  0.00000000E+00  0.00000000E+00  0.00000000E+00
  0.00000000E+00  0.00000000E+00  0.00000000E+00
  0.00000000E+00  0.00000000E+00  0.00000000E+00
  0.00000000E+00  0.00000000E+00  0.00000000E+00
  0.00000000E+00  0.00000000E+00  0.00000000E+00
  0.00000000E+00  0.00000000E+00  0.00000000E+00
  0.00000000E+00  0.00000000E+00  0.00000000E+00
  0.00000000E+00  0.00000000E+00  0.00000000E+00
  0.00000000E+00  0.00000000E+00  0.00000000E+00
  0.00000000E+00  0.00000000E+00  0.00000000E+00
  0.00000000E+00  0.00000000E+00  0.00000000E+00
  0.00000000E+00  0.00000000E+00  0.00000000E+00
  0.00000000E+00  0.00000000E+00  0.00000000E+00
  0.00000000E+00  0.00000000E+00  0.00000000E+00
  0.00000000E+00  0.00000000E+00  0.00000000E+00
  0.00000000E+00  0.00000000E+00  0.00000000E+00
  0.00000000E+00  0.00000000E+00  0.00000000E+00
  0.00000000E+00  0.00000000E+00  0.00000000E+00
  0.00000000E+00  0.00000000E+00  0.00000000E+00
  0.00000000E+00  0.00000000E+00  0.00000000E+00
  0.00000000E+00  0.00000000E+00  0.00000000E+00
  0.00000000E+00  0.00000000E+00  0.00000000E+00
  0.00000000E+00  0.00000000E+00  0.00000000E+00
  0.00000000E+00  0.00000000E+00  0.00000000E+00
  0.00000000E+00  0.00000000E+00  0.00000000E+00
